(set-logic QF_S)
(declare-fun var0 () String)
(declare-fun var1 () Int)
(declare-fun var2 () Int)
(declare-fun var3 () String)
(declare-fun var4 () String)
(declare-fun var5 () String)
(declare-fun var6 () Int)
(declare-fun var7 () Int)
(assert (str.prefixof (str.substr (str.substr var0 var1 var2) (str.to.int var3) (str.len var4)) (str.substr var5 105 var6)))
(assert (not (>= var7 var2)))
(assert (>= (str.len var5) (str.to.int var5)))
(assert (str.contains var5 var4))
(check-sat)